3 
4  45 
5  00 15 33 51 
6  11 26 41 53 
7  08 23 38 53 
8  08 23 38 53 
9  08 23 38 53 
10  08 23 38 53 
11  08 23 38 53 
12  08 23 38 53 
13  08 24 39 54 
14  09 24 39 54 
15  09 24 39 54 
16  09 24 39 54 
17  09 24 39 54 
18  09 24 39 54 
19  09 23 38 53 
20  08 23 38 53 
21  08 23 38 53 
22  08 23 38 53 
23  07 20 42 
0 
